20 1 6
426 456 830 27 563 407 41 386 285 633 90 588 908 382 927 735 856 229 466 420 
140 753 417 129 506 883 488 733 189 857 934 614 312 763 992 226 521 385 611 806 
17 52 745 924 433 23 11 641 252 476 60 743 580 476 871 438 711 710 522 899 
566 456 864 229 570 207 454 443 591 416 600 608 467 696 531 251 719 541 243 322 
369 654 416 300 482 286 737 192 347 259 90 912 66 305 140 987 511 945 429 102 
360 380 61 178 76 591 780 146 484 23 819 204 28 234 855 509 871 592 700 217 
2020 1410 1280 2670 7970 6190 2530 3080 5630 340 7610 2740 4130 8210 4510 8400 7630 5820 3370 5980 
45760
